DIMENSION: 20
EDGE_WEIGHT_TYPE : EUC_2D
NODE_COORD_SECTION
1 27.00 22.00
2 17.00 94.00
3 43.00 22.00
4 87.00 98.00
5 27.00 82.00
6 41.00 77.00
7 73.00 46.00
8 45.00 19.00
9 72.00 47.00
10 99.00 72.00
11 65.00 64.00
12 14.00 25.00
13 67.00 15.00
14 38.00 83.00
15 2.00 76.00
16 1.00 7.00
17 25.00 8.00
18 15.00 66.00
19 7.00 84.00
20 39.00 63.00
TOUR_SECTION
3
1
17
16
12
18
15
19
2
5
14
6
20
11
4
10
9
7
13
8